\ Model keypath
\ LP format - for model browsing. Use MPS format to capture full model detail.
\ Signature: 0x482c2b080e02f899
Minimize
  155 t_1_2 + 80 t_1_3 + 70 t_1_4 + 50 t_1_5 + 120 t_1_6 + 100 t_1_7
   + 100 t_1_8 + 140 t_1_9 + 80 t_1_10 + 150 t_1_11 + 180 t_1_12
   + 100 t_1_13 + 75 t_1_14 + 80 t_1_15 + 99 t_2_1 + 80 t_2_3 + 70 t_2_4
   + 50 t_2_5 + 120 t_2_6 + 100 t_2_7 + 100 t_2_8 + 140 t_2_9 + 80 t_2_10
   + 150 t_2_11 + 180 t_2_12 + 100 t_2_13 + 75 t_2_14 + 80 t_2_15
   + 150 t_3_1 + 170 t_3_2 + 62 t_3_4 + 50 t_3_5 + 120 t_3_6 + 100 t_3_7
   + 100 t_3_8 + 140 t_3_9 + 80 t_3_10 + 150 t_3_11 + 180 t_3_12
   + 100 t_3_13 + 75 t_3_14 + 80 t_3_15 + 150 t_4_1 + 170 t_4_2 + 66 t_4_3
   + 50 t_4_5 + 120 t_4_6 + 100 t_4_7 + 100 t_4_8 + 140 t_4_9 + 80 t_4_10
   + 150 t_4_11 + 180 t_4_12 + 100 t_4_13 + 75 t_4_14 + 80 t_4_15
   + 150 t_5_1 + 170 t_5_2 + 75 t_5_3 + 60 t_5_4 + 120 t_5_6 + 100 t_5_7
   + 100 t_5_8 + 140 t_5_9 + 80 t_5_10 + 150 t_5_11 + 180 t_5_12
   + 100 t_5_13 + 75 t_5_14 + 80 t_5_15 + 150 t_6_1 + 170 t_6_2 + 80 t_6_3
   + 70 t_6_4 + 50 t_6_5 + 100 t_6_7 + 100 t_6_8 + 140 t_6_9 + 80 t_6_10
   + 150 t_6_11 + 180 t_6_12 + 100 t_6_13 + 75 t_6_14 + 80 t_6_15
   + 150 t_7_1 + 170 t_7_2 + 80 t_7_3 + 70 t_7_4 + 50 t_7_5 + 90 t_7_6
   + 100 t_7_8 + 140 t_7_9 + 80 t_7_10 + 150 t_7_11 + 180 t_7_12
   + 100 t_7_13 + 75 t_7_14 + 80 t_7_15 + 150 t_8_1 + 170 t_8_2 + 80 t_8_3
   + 70 t_8_4 + 50 t_8_5 + 110 t_8_6 + 80 t_8_7 + 140 t_8_9 + 80 t_8_10
   + 150 t_8_11 + 180 t_8_12 + 100 t_8_13 + 75 t_8_14 + 80 t_8_15
   + 150 t_9_1 + 170 t_9_2 + 80 t_9_3 + 70 t_9_4 + 50 t_9_5 + 120 t_9_6
   + 100 t_9_7 + 100 t_9_8 + 66 t_9_10 + 150 t_9_11 + 180 t_9_12
   + 100 t_9_13 + 75 t_9_14 + 80 t_9_15 + 150 t_10_1 + 170 t_10_2
   + 80 t_10_3 + 70 t_10_4 + 50 t_10_5 + 120 t_10_6 + 100 t_10_7
   + 100 t_10_8 + 124 t_10_9 + 150 t_10_11 + 180 t_10_12 + 100 t_10_13
   + 75 t_10_14 + 80 t_10_15 + 150 t_11_1 + 170 t_11_2 + 80 t_11_3
   + 70 t_11_4 + 50 t_11_5 + 120 t_11_6 + 100 t_11_7 + 100 t_11_8
   + 140 t_11_9 + 80 t_11_10 + 165 t_11_12 + 100 t_11_13 + 75 t_11_14
   + 80 t_11_15 + 150 t_12_1 + 170 t_12_2 + 80 t_12_3 + 70 t_12_4
   + 50 t_12_5 + 120 t_12_6 + 100 t_12_7 + 100 t_12_8 + 140 t_12_9
   + 80 t_12_10 + 78 t_12_11 + 100 t_12_13 + 75 t_12_14 + 80 t_12_15
   + 150 t_13_1 + 170 t_13_2 + 80 t_13_3 + 70 t_13_4 + 50 t_13_5
   + 120 t_13_6 + 100 t_13_7 + 100 t_13_8 + 140 t_13_9 + 80 t_13_10
   + 130 t_13_11 + 150 t_13_12 + 75 t_13_14 + 80 t_13_15 + 150 t_14_1
   + 170 t_14_2 + 80 t_14_3 + 70 t_14_4 + 50 t_14_5 + 120 t_14_6
   + 100 t_14_7 + 100 t_14_8 + 140 t_14_9 + 80 t_14_10 + 150 t_14_11
   + 180 t_14_12 + 100 t_14_13 + 72.5 t_14_15 + 150 t_15_1 + 170 t_15_2
   + 80 t_15_3 + 70 t_15_4 + 50 t_15_5 + 120 t_15_6 + 100 t_15_7
   + 100 t_15_8 + 140 t_15_9 + 80 t_15_10 + 150 t_15_11 + 180 t_15_12
   + 100 t_15_13 + 59 t_15_14
Subject To
 cap_102: - 0.1 t_1_2 + t_1_7 + t_2_1 + t_2_7 + t_3_1 + t_3_7 + t_4_1
   + t_4_7 + t_5_1 + t_5_7 + t_6_1 + t_6_7 + t_7_1 - 0.3 t_7_6 + t_8_1
   + t_8_7 + t_9_1 + t_9_7 + t_10_1 + t_10_7 + t_11_1 + t_11_7 + t_12_1
   + t_12_7 + t_13_1 + t_13_7 + t_14_1 + t_14_7 + t_15_1 + t_15_7 >= 62
 cap_301: t_1_10 + t_1_14 + t_2_10 + t_2_14 + t_3_10 + t_3_14 + t_4_10
   + t_4_14 + t_5_10 + t_5_14 + t_6_10 + t_6_14 + t_7_10 + t_7_14 + t_8_10
   + t_8_14 + t_9_10 + t_9_14 - 0.2 t_10_9 + t_10_14 + t_11_10 + t_11_14
   + t_12_10 + t_12_14 + t_13_10 + t_13_14 + t_14_10 - 0.1 t_14_15
   + t_15_10 + t_15_14 >= 56
 cap_201: t_1_5 + t_1_7 + t_1_11 + t_2_5 + t_2_7 + t_2_11 + t_3_5 + t_3_7
   + t_3_11 + t_4_5 + t_4_7 + t_4_11 - 0.1 t_5_3 - 0.2 t_5_4 + t_5_7
   + t_5_11 + t_6_5 + t_6_7 + t_6_11 + t_7_5 - 0.3 t_7_6 + t_7_11 + t_8_5
   + t_8_7 + t_8_11 + t_9_5 + t_9_7 + t_9_11 + t_10_5 + t_10_7 + t_10_11
   + t_11_5 + t_11_7 - 0.1 t_11_12 + t_12_5 + t_12_7 + t_12_11 + t_13_5
   + t_13_7 + t_13_11 + t_14_5 + t_14_7 + t_14_11 + t_15_5 + t_15_7
   + t_15_11 >= 36
 cap_104: t_1_2 + t_1_8 - 0.3 t_2_1 + t_2_8 + t_3_2 + t_3_8 + t_4_2 + t_4_8
   + t_5_2 + t_5_8 + t_6_2 + t_6_8 + t_7_2 + t_7_8 + t_8_2 - 0.1 t_8_6
   - 0.2 t_8_7 + t_9_2 + t_9_8 + t_10_2 + t_10_8 + t_11_2 + t_11_8 + t_12_2
   + t_12_8 + t_13_2 + t_13_8 + t_14_2 + t_14_8 + t_15_2 + t_15_8 >= 82
 cap_202: t_1_3 + t_1_10 + t_1_13 + t_2_3 + t_2_10 + t_2_13 - 0.1 t_3_4
   + t_3_10 + t_3_13 + t_4_3 + t_4_10 + t_4_13 + t_5_3 + t_5_10 + t_5_13
   + t_6_3 + t_6_10 + t_6_13 + t_7_3 + t_7_10 + t_7_13 + t_8_3 + t_8_10
   + t_8_13 + t_9_3 + t_9_10 + t_9_13 + t_10_3 - 0.2 t_10_9 + t_10_13
   + t_11_3 + t_11_10 + t_11_13 + t_12_3 + t_12_10 + t_12_13 + t_13_3
   + t_13_10 - 0.2 t_13_11 - 0.3 t_13_12 + t_14_3 + t_14_10 + t_14_13
   + t_15_3 + t_15_10 + t_15_13 >= 117
 cap_302: t_1_5 + t_1_9 + t_2_5 + t_2_9 + t_3_5 + t_3_9 + t_4_5 + t_4_9
   - 0.1 t_5_3 - 0.2 t_5_4 + t_5_9 + t_6_5 + t_6_9 + t_7_5 + t_7_9 + t_8_5
   + t_8_9 + t_9_5 - 0.1 t_9_10 + t_10_5 + t_10_9 + t_11_5 + t_11_9
   + t_12_5 + t_12_9 + t_13_5 + t_13_9 + t_14_5 + t_14_9 + t_15_5 + t_15_9
   >= 82
 cap_303: t_1_15 + t_2_15 + t_3_15 + t_4_15 + t_5_15 + t_6_15 + t_7_15
   + t_8_15 + t_9_15 + t_10_15 + t_11_15 + t_12_15 + t_13_15 + t_14_15
   - 0.2 t_15_14 >= -64
 cap_204: t_1_4 + t_2_4 + t_3_4 - 0.2 t_4_3 + t_5_4 + t_6_4 + t_7_4 + t_8_4
   + t_9_4 + t_10_4 + t_11_4 + t_12_4 + t_13_4 + t_14_4 + t_15_4 >= -8
 cap_203: t_1_8 + t_1_12 + t_2_8 + t_2_12 + t_3_8 + t_3_12 + t_4_8 + t_4_12
   + t_5_8 + t_5_12 + t_6_8 + t_6_12 + t_7_8 + t_7_12 - 0.1 t_8_6
   - 0.2 t_8_7 + t_8_12 + t_9_8 + t_9_12 + t_10_8 + t_10_12 + t_11_8
   + t_11_12 + t_12_8 - 0.4 t_12_11 + t_13_8 + t_13_12 + t_14_8 + t_14_12
   + t_15_8 + t_15_12 >= 142
 cap_101: t_1_6 + t_1_13 + t_2_6 + t_2_13 + t_3_6 + t_3_13 + t_4_6 + t_4_13
   + t_5_6 + t_5_13 + t_6_13 + t_7_6 + t_7_13 + t_8_6 + t_8_13 + t_9_6
   + t_9_13 + t_10_6 + t_10_13 + t_11_6 + t_11_13 + t_12_6 + t_12_13
   + t_13_6 - 0.2 t_13_11 - 0.3 t_13_12 + t_14_6 + t_14_13 + t_15_6
   + t_15_13 >= 42
 demand_1: t_1_1 + t_2_1 + t_3_1 + t_4_1 + t_5_1 + t_6_1 + t_7_1 + t_8_1
   + t_9_1 + t_10_1 + t_11_1 + t_12_1 + t_13_1 + t_14_1 + t_15_1 <= 90
 demand_2: t_1_2 + t_2_2 + t_3_2 + t_4_2 + t_5_2 + t_6_2 + t_7_2 + t_8_2
   + t_9_2 + t_10_2 + t_11_2 + t_12_2 + t_13_2 + t_14_2 + t_15_2 <= 120
 demand_3: t_1_3 + t_2_3 + t_3_3 + t_4_3 + t_5_3 + t_6_3 + t_7_3 + t_8_3
   + t_9_3 + t_10_3 + t_11_3 + t_12_3 + t_13_3 + t_14_3 + t_15_3 <= 70
 demand_4: t_1_4 + t_2_4 + t_3_4 + t_4_4 + t_5_4 + t_6_4 + t_7_4 + t_8_4
   + t_9_4 + t_10_4 + t_11_4 + t_12_4 + t_13_4 + t_14_4 + t_15_4 <= 100
 demand_5: t_1_5 + t_2_5 + t_3_5 + t_4_5 + t_5_5 + t_6_5 + t_7_5 + t_8_5
   + t_9_5 + t_10_5 + t_11_5 + t_12_5 + t_13_5 + t_14_5 + t_15_5 <= 50
 demand_6: t_1_6 + t_2_6 + t_3_6 + t_4_6 + t_5_6 + t_6_6 + t_7_6 + t_8_6
   + t_9_6 + t_10_6 + t_11_6 + t_12_6 + t_13_6 + t_14_6 + t_15_6 <= 120
 demand_7: t_1_7 + t_2_7 + t_3_7 + t_4_7 + t_5_7 + t_6_7 + t_7_7 + t_8_7
   + t_9_7 + t_10_7 + t_11_7 + t_12_7 + t_13_7 + t_14_7 + t_15_7 <= 80
 demand_8: t_1_8 + t_2_8 + t_3_8 + t_4_8 + t_5_8 + t_6_8 + t_7_8 + t_8_8
   + t_9_8 + t_10_8 + t_11_8 + t_12_8 + t_13_8 + t_14_8 + t_15_8 <= 70
 demand_9: t_1_9 + t_2_9 + t_3_9 + t_4_9 + t_5_9 + t_6_9 + t_7_9 + t_8_9
   + t_9_9 + t_10_9 + t_11_9 + t_12_9 + t_13_9 + t_14_9 + t_15_9 <= 140
 demand_10: t_1_10 + t_2_10 + t_3_10 + t_4_10 + t_5_10 + t_6_10 + t_7_10
   + t_8_10 + t_9_10 + t_10_10 + t_11_10 + t_12_10 + t_13_10 + t_14_10
   + t_15_10 <= 125
 demand_11: t_1_11 + t_2_11 + t_3_11 + t_4_11 + t_5_11 + t_6_11 + t_7_11
   + t_8_11 + t_9_11 + t_10_11 + t_11_11 + t_12_11 + t_13_11 + t_14_11
   + t_15_11 <= 50
 demand_12: t_1_12 + t_2_12 + t_3_12 + t_4_12 + t_5_12 + t_6_12 + t_7_12
   + t_8_12 + t_9_12 + t_10_12 + t_11_12 + t_12_12 + t_13_12 + t_14_12
   + t_15_12 <= 180
 demand_13: t_1_13 + t_2_13 + t_3_13 + t_4_13 + t_5_13 + t_6_13 + t_7_13
   + t_8_13 + t_9_13 + t_10_13 + t_11_13 + t_12_13 + t_13_13 + t_14_13
   + t_15_13 <= 30
 demand_14: t_1_14 + t_2_14 + t_3_14 + t_4_14 + t_5_14 + t_6_14 + t_7_14
   + t_8_14 + t_9_14 + t_10_14 + t_11_14 + t_12_14 + t_13_14 + t_14_14
   + t_15_14 <= 75
 demand_15: t_1_15 + t_2_15 + t_3_15 + t_4_15 + t_5_15 + t_6_15 + t_7_15
   + t_8_15 + t_9_15 + t_10_15 + t_11_15 + t_12_15 + t_13_15 + t_14_15
   + t_15_15 <= 80
Bounds
Generals
 t_1_1 t_1_2 t_1_3 t_1_4 t_1_5 t_1_6 t_1_7 t_1_8 t_1_9 t_1_10 t_1_11 t_1_12
 t_1_13 t_1_14 t_1_15 t_2_1 t_2_2 t_2_3 t_2_4 t_2_5 t_2_6 t_2_7 t_2_8 t_2_9
 t_2_10 t_2_11 t_2_12 t_2_13 t_2_14 t_2_15 t_3_1 t_3_2 t_3_3 t_3_4 t_3_5
 t_3_6 t_3_7 t_3_8 t_3_9 t_3_10 t_3_11 t_3_12 t_3_13 t_3_14 t_3_15 t_4_1
 t_4_2 t_4_3 t_4_4 t_4_5 t_4_6 t_4_7 t_4_8 t_4_9 t_4_10 t_4_11 t_4_12
 t_4_13 t_4_14 t_4_15 t_5_1 t_5_2 t_5_3 t_5_4 t_5_5 t_5_6 t_5_7 t_5_8 t_5_9
 t_5_10 t_5_11 t_5_12 t_5_13 t_5_14 t_5_15 t_6_1 t_6_2 t_6_3 t_6_4 t_6_5
 t_6_6 t_6_7 t_6_8 t_6_9 t_6_10 t_6_11 t_6_12 t_6_13 t_6_14 t_6_15 t_7_1
 t_7_2 t_7_3 t_7_4 t_7_5 t_7_6 t_7_7 t_7_8 t_7_9 t_7_10 t_7_11 t_7_12
 t_7_13 t_7_14 t_7_15 t_8_1 t_8_2 t_8_3 t_8_4 t_8_5 t_8_6 t_8_7 t_8_8 t_8_9
 t_8_10 t_8_11 t_8_12 t_8_13 t_8_14 t_8_15 t_9_1 t_9_2 t_9_3 t_9_4 t_9_5
 t_9_6 t_9_7 t_9_8 t_9_9 t_9_10 t_9_11 t_9_12 t_9_13 t_9_14 t_9_15 t_10_1
 t_10_2 t_10_3 t_10_4 t_10_5 t_10_6 t_10_7 t_10_8 t_10_9 t_10_10 t_10_11
 t_10_12 t_10_13 t_10_14 t_10_15 t_11_1 t_11_2 t_11_3 t_11_4 t_11_5 t_11_6
 t_11_7 t_11_8 t_11_9 t_11_10 t_11_11 t_11_12 t_11_13 t_11_14 t_11_15
 t_12_1 t_12_2 t_12_3 t_12_4 t_12_5 t_12_6 t_12_7 t_12_8 t_12_9 t_12_10
 t_12_11 t_12_12 t_12_13 t_12_14 t_12_15 t_13_1 t_13_2 t_13_3 t_13_4 t_13_5
 t_13_6 t_13_7 t_13_8 t_13_9 t_13_10 t_13_11 t_13_12 t_13_13 t_13_14
 t_13_15 t_14_1 t_14_2 t_14_3 t_14_4 t_14_5 t_14_6 t_14_7 t_14_8 t_14_9
 t_14_10 t_14_11 t_14_12 t_14_13 t_14_14 t_14_15 t_15_1 t_15_2 t_15_3
 t_15_4 t_15_5 t_15_6 t_15_7 t_15_8 t_15_9 t_15_10 t_15_11 t_15_12 t_15_13
 t_15_14 t_15_15
End
